sat
(
  (define-fun E () String
    "aaaaaaaaaaaaaaaaaaaaaaaaaaaaaaaaa")
  (define-fun F () String
    "aaaaaaaaaa")
  (define-fun I () String
    "aaaaaaaaaaaaaaaaaaaaaaaaaaaaaaaaaaaaaaaaaaaaaaaaaaaa")
  (define-fun B () String
    "aaaaaaaaaaaaaaaaaaaaaaaaaaaaaaaaa")
  (define-fun A () String
    "aaaaaaaaaaaaaaaaaaaaaaaaaaaaaaaaaaaaa")
  (define-fun D () String
    "aaaaaaaaaaaaaaaaaaaaaaaaaaaaaaaaaaa")
  (define-fun C () String
    "aaaaaaaaaaaaaaaaaaaaaaaaaaaaaaaaaaaaa")
  (define-fun H () String
    "aaaaaaaaaaaaaaaaaaaaaaaaaaaaaaaaaaaaaaaaaaaaaaaaaaaaaaaaaaaaaaaaaaaaa")
  (define-fun G () String
    "aaaaaaaaaaaaaaaaaaaaaaaaaaaaaaaaaaaaa")
)
